; benchmark generated from python API
(set-info :status unknown)
(declare-datatypes ((RealState 0)) (((RMk1 (rval1 Real)) (RMk2 (rval2 Real)))))
 (declare-fun yuscore2dollarskuscore32 () Real)
(declare-fun t18uscore0dollarskuscore1 () Real)
(declare-fun stuscore2dollarskuscore32 () Real)
(declare-fun xuscore2dollarskuscore24 () Real)
(assert
 (let (($x155 (exists ((ts18uscore1_st RealState) (val!155 Real) )(let (($x7 (<= (+ (* (- 2.0) t18uscore0dollarskuscore1) yuscore2dollarskuscore32) 12.0)))
 (let (($x249 (= stuscore2dollarskuscore32 1.0)))
 (let (($x128 (or $x249 $x7)))
 (let (($x134 (>= yuscore2dollarskuscore32 (- 5.0 (* 2.0 xuscore2dollarskuscore24)))))
 (let (($x211 (<= yuscore2dollarskuscore32 12.0)))
 (let (($x190 (>= yuscore2dollarskuscore32 1.0)))
 (let (($x39 (= stuscore2dollarskuscore32 2.0)))
 (let (($x203 (> yuscore2dollarskuscore32 5.0)))
 (let (($x24 (>= t18uscore0dollarskuscore1 0.0)))
 (let (($x247 (and (<= 0.0 (rval2 ts18uscore1_st)) (<= (rval2 ts18uscore1_st) t18uscore0dollarskuscore1))))
 (let (($x56 (=> $x247 (>= (+ (* (- 2.0) (rval2 ts18uscore1_st)) yuscore2dollarskuscore32) 5.0))))
 (let (($x197 (and (and (and (and (and (and $x56 $x24) $x203) $x39) $x190) $x211) $x134)))
 (let (($x94 (not (= ts18uscore1_st (RMk1 val!155)))))
 (and $x94 (=> $x197 $x128))))))))))))))))
 ))
 (not $x155)))
(check-sat)
